    1C
    1UUSER                                                              
    1UDATE              25.december.2019                                
    1UTIME              19:59:29                                        
    1UHOST                                                              
    1UPGM               CalculiX                                        
    1UVERSION           Version 2.11                             
    1UCOMPILETIME       So 31. Jul 13:26:31 CEST 2016                    
    1UDIR                                                               
    1UDBN                                                               
    1UMAT    1STEEL                                                     
    2C                           261                                     1
 -1         1 1.00000E+00 1.00000E+00 0.00000E+00
 -1         2 1.00000E+00 5.00000E-01 0.00000E+00
 -1         3 1.00000E+00 5.00000E-01 1.00000E+00
 -1         4 1.00000E+00 1.00000E+00 1.00000E+00
 -1         5 5.00000E-01 1.00000E+00 0.00000E+00
 -1         6 5.00000E-01 5.00000E-01-1.77636E-15
 -1         7 5.00000E-01 5.00000E-01 1.00000E+00
 -1         8 5.00000E-01 1.00000E+00 1.00000E+00
 -1         9 1.00000E+00 7.50000E-01 0.00000E+00
 -1        10 1.00000E+00 5.00000E-01 5.00000E-01
 -1        11 1.00000E+00 7.50000E-01 1.00000E+00
 -1        12 1.00000E+00 1.00000E+00 5.00000E-01
 -1        13 7.50000E-01 1.00000E+00 0.00000E+00
 -1        14 7.50000E-01 5.00000E-01-8.88178E-16
 -1        15 7.50000E-01 5.00000E-01 1.00000E+00
 -1        16 7.50000E-01 1.00000E+00 1.00000E+00
 -1        17 5.00000E-01 7.50000E-01-1.77636E-15
 -1        18 5.00000E-01 5.00000E-01 5.00000E-01
 -1        19 5.00000E-01 7.50000E-01 1.00000E+00
 -1        20 5.00000E-01 1.00000E+00 5.00000E-01
 -1        21 1.00000E+00 5.00000E-01 2.00000E+00
 -1        22 1.00000E+00 1.00000E+00 2.00000E+00
 -1        23 5.00000E-01 5.00000E-01 2.00000E+00
 -1        24 5.00000E-01 1.00000E+00 2.00000E+00
 -1        25 1.00000E+00 5.00000E-01 1.50000E+00
 -1        26 1.00000E+00 7.50000E-01 2.00000E+00
 -1        27 1.00000E+00 1.00000E+00 1.50000E+00
 -1        28 7.50000E-01 5.00000E-01 2.00000E+00
 -1        29 7.50000E-01 1.00000E+00 2.00000E+00
 -1        30 5.00000E-01 5.00000E-01 1.50000E+00
 -1        31 5.00000E-01 7.50000E-01 2.00000E+00
 -1        32 5.00000E-01 1.00000E+00 1.50000E+00
 -1        33 1.00000E+00 5.00000E-01 3.00000E+00
 -1        34 1.00000E+00 1.00000E+00 3.00000E+00
 -1        35 5.00000E-01 5.00000E-01 3.00000E+00
 -1        36 5.00000E-01 1.00000E+00 3.00000E+00
 -1        37 1.00000E+00 5.00000E-01 2.50000E+00
 -1        38 1.00000E+00 7.50000E-01 3.00000E+00
 -1        39 1.00000E+00 1.00000E+00 2.50000E+00
 -1        40 7.50000E-01 5.00000E-01 3.00000E+00
 -1        41 7.50000E-01 1.00000E+00 3.00000E+00
 -1        42 5.00000E-01 5.00000E-01 2.50000E+00
 -1        43 5.00000E-01 7.50000E-01 3.00000E+00
 -1        44 5.00000E-01 1.00000E+00 2.50000E+00
 -1        45 1.00000E+00 5.00000E-01 4.00000E+00
 -1        46 1.00000E+00 1.00000E+00 4.00000E+00
 -1        47 5.00000E-01 5.00000E-01 4.00000E+00
 -1        48 5.00000E-01 1.00000E+00 4.00000E+00
 -1        49 1.00000E+00 5.00000E-01 3.50000E+00
 -1        50 1.00000E+00 7.50000E-01 4.00000E+00
 -1        51 1.00000E+00 1.00000E+00 3.50000E+00
 -1        52 7.50000E-01 5.00000E-01 4.00000E+00
 -1        53 7.50000E-01 1.00000E+00 4.00000E+00
 -1        54 5.00000E-01 5.00000E-01 3.50000E+00
 -1        55 5.00000E-01 7.50000E-01 4.00000E+00
 -1        56 5.00000E-01 1.00000E+00 3.50000E+00
 -1        57 1.00000E+00 5.00000E-01 5.00000E+00
 -1        58 1.00000E+00 1.00000E+00 5.00000E+00
 -1        59 5.00000E-01 5.00000E-01 5.00000E+00
 -1        60 5.00000E-01 1.00000E+00 5.00000E+00
 -1        61 1.00000E+00 5.00000E-01 4.50000E+00
 -1        62 1.00000E+00 7.50000E-01 5.00000E+00
 -1        63 1.00000E+00 1.00000E+00 4.50000E+00
 -1        64 7.50000E-01 5.00000E-01 5.00000E+00
 -1        65 7.50000E-01 1.00000E+00 5.00000E+00
 -1        66 5.00000E-01 5.00000E-01 4.50000E+00
 -1        67 5.00000E-01 7.50000E-01 5.00000E+00
 -1        68 5.00000E-01 1.00000E+00 4.50000E+00
 -1        69 1.00000E+00 5.00000E-01 6.00000E+00
 -1        70 1.00000E+00 1.00000E+00 6.00000E+00
 -1        71 5.00000E-01 5.00000E-01 6.00000E+00
 -1        72 5.00000E-01 1.00000E+00 6.00000E+00
 -1        73 1.00000E+00 5.00000E-01 5.50000E+00
 -1        74 1.00000E+00 7.50000E-01 6.00000E+00
 -1        75 1.00000E+00 1.00000E+00 5.50000E+00
 -1        76 7.50000E-01 5.00000E-01 6.00000E+00
 -1        77 7.50000E-01 1.00000E+00 6.00000E+00
 -1        78 5.00000E-01 5.00000E-01 5.50000E+00
 -1        79 5.00000E-01 7.50000E-01 6.00000E+00
 -1        80 5.00000E-01 1.00000E+00 5.50000E+00
 -1        81 1.00000E+00 5.00000E-01 7.00000E+00
 -1        82 1.00000E+00 1.00000E+00 7.00000E+00
 -1        83 5.00000E-01 5.00000E-01 7.00000E+00
 -1        84 5.00000E-01 1.00000E+00 7.00000E+00
 -1        85 1.00000E+00 5.00000E-01 6.50000E+00
 -1        86 1.00000E+00 7.50000E-01 7.00000E+00
 -1        87 1.00000E+00 1.00000E+00 6.50000E+00
 -1        88 7.50000E-01 5.00000E-01 7.00000E+00
 -1        89 7.50000E-01 1.00000E+00 7.00000E+00
 -1        90 5.00000E-01 5.00000E-01 6.50000E+00
 -1        91 5.00000E-01 7.50000E-01 7.00000E+00
 -1        92 5.00000E-01 1.00000E+00 6.50000E+00
 -1        93 1.00000E+00 5.00000E-01 8.00000E+00
 -1        94 1.00000E+00 1.00000E+00 8.00000E+00
 -1        95 5.00000E-01 5.00000E-01 8.00000E+00
 -1        96 5.00000E-01 1.00000E+00 8.00000E+00
 -1        97 1.00000E+00 5.00000E-01 7.50000E+00
 -1        98 1.00000E+00 7.50000E-01 8.00000E+00
 -1        99 1.00000E+00 1.00000E+00 7.50000E+00
 -1       100 7.50000E-01 5.00000E-01 8.00000E+00
 -1       101 7.50000E-01 1.00000E+00 8.00000E+00
 -1       102 5.00000E-01 5.00000E-01 7.50000E+00
 -1       103 5.00000E-01 7.50000E-01 8.00000E+00
 -1       104 5.00000E-01 1.00000E+00 7.50000E+00
 -1       105 0.00000E+00 1.00000E+00 0.00000E+00
 -1       106 0.00000E+00 5.00000E-01 0.00000E+00
 -1       107 1.11022E-16 5.00000E-01 1.00000E+00
 -1       108 0.00000E+00 1.00000E+00 1.00000E+00
 -1       109 2.50000E-01 1.00000E+00 0.00000E+00
 -1       110 2.50000E-01 5.00000E-01-1.77636E-15
 -1       111 2.50000E-01 5.00000E-01 1.00000E+00
 -1       112 2.50000E-01 1.00000E+00 1.00000E+00
 -1       113 0.00000E+00 7.50000E-01 0.00000E+00
 -1       114 0.00000E+00 5.00000E-01 5.00000E-01
 -1       115 0.00000E+00 7.50000E-01 1.00000E+00
 -1       116 0.00000E+00 1.00000E+00 5.00000E-01
 -1       117 0.00000E+00 5.00000E-01 2.00000E+00
 -1       118 0.00000E+00 1.00000E+00 2.00000E+00
 -1       119 2.50000E-01 5.00000E-01 2.00000E+00
 -1       120 2.50000E-01 1.00000E+00 2.00000E+00
 -1       121-2.22045E-16 5.00000E-01 1.50000E+00
 -1       122 0.00000E+00 7.50000E-01 2.00000E+00
 -1       123 0.00000E+00 1.00000E+00 1.50000E+00
 -1       124 0.00000E+00 5.00000E-01 3.00000E+00
 -1       125 0.00000E+00 1.00000E+00 3.00000E+00
 -1       126 2.50000E-01 5.00000E-01 3.00000E+00
 -1       127 2.50000E-01 1.00000E+00 3.00000E+00
 -1       128-2.22045E-16 5.00000E-01 2.50000E+00
 -1       129 0.00000E+00 7.50000E-01 3.00000E+00
 -1       130 0.00000E+00 1.00000E+00 2.50000E+00
 -1       131-2.22045E-16 5.00000E-01 4.00000E+00
 -1       132 0.00000E+00 1.00000E+00 4.00000E+00
 -1       133 2.50000E-01 5.00000E-01 4.00000E+00
 -1       134 2.50000E-01 1.00000E+00 4.00000E+00
 -1       135 1.11022E-16 5.00000E-01 3.50000E+00
 -1       136-1.11022E-16 7.50000E-01 4.00000E+00
 -1       137 0.00000E+00 1.00000E+00 3.50000E+00
 -1       138-2.22045E-16 5.00000E-01 5.00000E+00
 -1       139 0.00000E+00 1.00000E+00 5.00000E+00
 -1       140 2.50000E-01 5.00000E-01 5.00000E+00
 -1       141 2.50000E-01 1.00000E+00 5.00000E+00
 -1       142 5.55112E-17 5.00000E-01 4.50000E+00
 -1       143 0.00000E+00 7.50000E-01 5.00000E+00
 -1       144 0.00000E+00 1.00000E+00 4.50000E+00
 -1       145-2.22045E-16 5.00000E-01 6.00000E+00
 -1       146 0.00000E+00 1.00000E+00 6.00000E+00
 -1       147 2.50000E-01 5.00000E-01 6.00000E+00
 -1       148 2.50000E-01 1.00000E+00 6.00000E+00
 -1       149-1.11022E-16 5.00000E-01 5.50000E+00
 -1       150 0.00000E+00 7.50000E-01 6.00000E+00
 -1       151 0.00000E+00 1.00000E+00 5.50000E+00
 -1       152 1.11022E-16 5.00000E-01 7.00000E+00
 -1       153 0.00000E+00 1.00000E+00 7.00000E+00
 -1       154 2.50000E-01 5.00000E-01 7.00000E+00
 -1       155 2.50000E-01 1.00000E+00 7.00000E+00
 -1       156-2.22045E-16 5.00000E-01 6.50000E+00
 -1       157-2.22045E-16 7.50000E-01 7.00000E+00
 -1       158 0.00000E+00 1.00000E+00 6.50000E+00
 -1       159 0.00000E+00 5.00000E-01 8.00000E+00
 -1       160 0.00000E+00 1.00000E+00 8.00000E+00
 -1       161 2.50000E-01 5.00000E-01 8.00000E+00
 -1       162 2.50000E-01 1.00000E+00 8.00000E+00
 -1       163-2.22045E-16 5.00000E-01 7.50000E+00
 -1       164 0.00000E+00 7.50000E-01 8.00000E+00
 -1       165 0.00000E+00 1.00000E+00 7.50000E+00
 -1       166 1.00000E+00 0.00000E+00 0.00000E+00
 -1       167 1.00000E+00 0.00000E+00 1.00000E+00
 -1       168 5.00000E-01 0.00000E+00 0.00000E+00
 -1       169 5.00000E-01 1.11022E-16 1.00000E+00
 -1       170 1.00000E+00 2.50000E-01 0.00000E+00
 -1       171 1.00000E+00 0.00000E+00 5.00000E-01
 -1       172 1.00000E+00 2.50000E-01 1.00000E+00
 -1       173 7.50000E-01 0.00000E+00 0.00000E+00
 -1       174 7.50000E-01 0.00000E+00 1.00000E+00
 -1       175 5.00000E-01 2.50000E-01 0.00000E+00
 -1       176 5.00000E-01 0.00000E+00 5.00000E-01
 -1       177 5.00000E-01 2.50000E-01 1.00000E+00
 -1       178 1.00000E+00 0.00000E+00 2.00000E+00
 -1       179 5.00000E-01 0.00000E+00 2.00000E+00
 -1       180 1.00000E+00 0.00000E+00 1.50000E+00
 -1       181 1.00000E+00 2.50000E-01 2.00000E+00
 -1       182 7.50000E-01 0.00000E+00 2.00000E+00
 -1       183 5.00000E-01-2.22045E-16 1.50000E+00
 -1       184 5.00000E-01 2.50000E-01 2.00000E+00
 -1       185 1.00000E+00 0.00000E+00 3.00000E+00
 -1       186 5.00000E-01 0.00000E+00 3.00000E+00
 -1       187 1.00000E+00 0.00000E+00 2.50000E+00
 -1       188 1.00000E+00 2.50000E-01 3.00000E+00
 -1       189 7.50000E-01 0.00000E+00 3.00000E+00
 -1       190 5.00000E-01-2.22045E-16 2.50000E+00
 -1       191 5.00000E-01 2.50000E-01 3.00000E+00
 -1       192 1.00000E+00 0.00000E+00 4.00000E+00
 -1       193 5.00000E-01-2.22045E-16 4.00000E+00
 -1       194 1.00000E+00 0.00000E+00 3.50000E+00
 -1       195 1.00000E+00 2.50000E-01 4.00000E+00
 -1       196 7.50000E-01-1.11022E-16 4.00000E+00
 -1       197 5.00000E-01 1.11022E-16 3.50000E+00
 -1       198 5.00000E-01 2.50000E-01 4.00000E+00
 -1       199 1.00000E+00 0.00000E+00 5.00000E+00
 -1       200 5.00000E-01-2.22045E-16 5.00000E+00
 -1       201 1.00000E+00 0.00000E+00 4.50000E+00
 -1       202 1.00000E+00 2.50000E-01 5.00000E+00
 -1       203 7.50000E-01 0.00000E+00 5.00000E+00
 -1       204 5.00000E-01 5.55112E-17 4.50000E+00
 -1       205 5.00000E-01 2.50000E-01 5.00000E+00
 -1       206 1.00000E+00 0.00000E+00 6.00000E+00
 -1       207 5.00000E-01-2.22045E-16 6.00000E+00
 -1       208 1.00000E+00 0.00000E+00 5.50000E+00
 -1       209 1.00000E+00 2.50000E-01 6.00000E+00
 -1       210 7.50000E-01 0.00000E+00 6.00000E+00
 -1       211 5.00000E-01-1.11022E-16 5.50000E+00
 -1       212 5.00000E-01 2.50000E-01 6.00000E+00
 -1       213 1.00000E+00 0.00000E+00 7.00000E+00
 -1       214 5.00000E-01 1.11022E-16 7.00000E+00
 -1       215 1.00000E+00 0.00000E+00 6.50000E+00
 -1       216 1.00000E+00 2.50000E-01 7.00000E+00
 -1       217 7.50000E-01-2.22045E-16 7.00000E+00
 -1       218 5.00000E-01-2.22045E-16 6.50000E+00
 -1       219 5.00000E-01 2.50000E-01 7.00000E+00
 -1       220 1.00000E+00 0.00000E+00 8.00000E+00
 -1       221 5.00000E-01 0.00000E+00 8.00000E+00
 -1       222 1.00000E+00 0.00000E+00 7.50000E+00
 -1       223 1.00000E+00 2.50000E-01 8.00000E+00
 -1       224 7.50000E-01 0.00000E+00 8.00000E+00
 -1       225 5.00000E-01-2.22045E-16 7.50000E+00
 -1       226 5.00000E-01 2.50000E-01 8.00000E+00
 -1       227 0.00000E+00 0.00000E+00 0.00000E+00
 -1       228 0.00000E+00 0.00000E+00 1.00000E+00
 -1       229 2.50000E-01 0.00000E+00 0.00000E+00
 -1       230 2.50000E-01-1.11022E-16 1.00000E+00
 -1       231 0.00000E+00 2.50000E-01 0.00000E+00
 -1       232 0.00000E+00 0.00000E+00 5.00000E-01
 -1       233-1.11022E-16 2.50000E-01 1.00000E+00
 -1       234 0.00000E+00 0.00000E+00 2.00000E+00
 -1       235 2.50000E-01 0.00000E+00 2.00000E+00
 -1       236 0.00000E+00 0.00000E+00 1.50000E+00
 -1       237 0.00000E+00 2.50000E-01 2.00000E+00
 -1       238 0.00000E+00 0.00000E+00 3.00000E+00
 -1       239 2.50000E-01 0.00000E+00 3.00000E+00
 -1       240 0.00000E+00 0.00000E+00 2.50000E+00
 -1       241 0.00000E+00 2.50000E-01 3.00000E+00
 -1       242 0.00000E+00 0.00000E+00 4.00000E+00
 -1       243 2.50000E-01-2.22045E-16 4.00000E+00
 -1       244 0.00000E+00 0.00000E+00 3.50000E+00
 -1       245-2.22045E-16 2.50000E-01 4.00000E+00
 -1       246 0.00000E+00 0.00000E+00 5.00000E+00
 -1       247 2.50000E-01 0.00000E+00 5.00000E+00
 -1       248 0.00000E+00 0.00000E+00 4.50000E+00
 -1       249 0.00000E+00 2.50000E-01 5.00000E+00
 -1       250 0.00000E+00 0.00000E+00 6.00000E+00
 -1       251 2.50000E-01 0.00000E+00 6.00000E+00
 -1       252 0.00000E+00 0.00000E+00 5.50000E+00
 -1       253 0.00000E+00 2.50000E-01 6.00000E+00
 -1       254 0.00000E+00 0.00000E+00 7.00000E+00
 -1       255 2.50000E-01 0.00000E+00 7.00000E+00
 -1       256 0.00000E+00 0.00000E+00 6.50000E+00
 -1       257 0.00000E+00 2.50000E-01 7.00000E+00
 -1       258 0.00000E+00 0.00000E+00 8.00000E+00
 -1       259 2.50000E-01 0.00000E+00 8.00000E+00
 -1       260 0.00000E+00 0.00000E+00 7.50000E+00
 -1       261 0.00000E+00 2.50000E-01 8.00000E+00
 -3
    3C                            32                                     1
 -1         1    4    0    1
 -2         1         2         3         4         5         6         7         8         9        10
 -2        11        12        13        14        15        16        17        18        19        20
 -1         2    4    0    1
 -2         4         3        21        22         8         7        23        24        11        25
 -2        26        27        16        15        28        29        19        30        31        32
 -1         3    4    0    1
 -2        22        21        33        34        24        23        35        36        26        37
 -2        38        39        29        28        40        41        31        42        43        44
 -1         4    4    0    1
 -2        34        33        45        46        36        35        47        48        38        49
 -2        50        51        41        40        52        53        43        54        55        56
 -1         5    4    0    1
 -2        46        45        57        58        48        47        59        60        50        61
 -2        62        63        53        52        64        65        55        66        67        68
 -1         6    4    0    1
 -2        58        57        69        70        60        59        71        72        62        73
 -2        74        75        65        64        76        77        67        78        79        80
 -1         7    4    0    1
 -2        70        69        81        82        72        71        83        84        74        85
 -2        86        87        77        76        88        89        79        90        91        92
 -1         8    4    0    1
 -2        82        81        93        94        84        83        95        96        86        97
 -2        98        99        89        88       100       101        91       102       103       104
 -1         9    4    0    1
 -2         5         6         7         8       105       106       107       108        17        18
 -2        19        20       109       110       111       112       113       114       115       116
 -1        10    4    0    1
 -2         8         7        23        24       108       107       117       118        19        30
 -2        31        32       112       111       119       120       115       121       122       123
 -1        11    4    0    1
 -2        24        23        35        36       118       117       124       125        31        42
 -2        43        44       120       119       126       127       122       128       129       130
 -1        12    4    0    1
 -2        36        35        47        48       125       124       131       132        43        54
 -2        55        56       127       126       133       134       129       135       136       137
 -1        13    4    0    1
 -2        48        47        59        60       132       131       138       139        55        66
 -2        67        68       134       133       140       141       136       142       143       144
 -1        14    4    0    1
 -2        60        59        71        72       139       138       145       146        67        78
 -2        79        80       141       140       147       148       143       149       150       151
 -1        15    4    0    1
 -2        72        71        83        84       146       145       152       153        79        90
 -2        91        92       148       147       154       155       150       156       157       158
 -1        16    4    0    1
 -2        84        83        95        96       153       152       159       160        91       102
 -2       103       104       155       154       161       162       157       163       164       165
 -1        17    4    0    1
 -2         2       166       167         3         6       168       169         7       170       171
 -2       172        10        14       173       174        15       175       176       177        18
 -1        18    4    0    1
 -2         3       167       178        21         7       169       179        23       172       180
 -2       181        25        15       174       182        28       177       183       184        30
 -1        19    4    0    1
 -2        21       178       185        33        23       179       186        35       181       187
 -2       188        37        28       182       189        40       184       190       191        42
 -1        20    4    0    1
 -2        33       185       192        45        35       186       193        47       188       194
 -2       195        49        40       189       196        52       191       197       198        54
 -1        21    4    0    1
 -2        45       192       199        57        47       193       200        59       195       201
 -2       202        61        52       196       203        64       198       204       205        66
 -1        22    4    0    1
 -2        57       199       206        69        59       200       207        71       202       208
 -2       209        73        64       203       210        76       205       211       212        78
 -1        23    4    0    1
 -2        69       206       213        81        71       207       214        83       209       215
 -2       216        85        76       210       217        88       212       218       219        90
 -1        24    4    0    1
 -2        81       213       220        93        83       214       221        95       216       222
 -2       223        97        88       217       224       100       219       225       226       102
 -1        25    4    0    1
 -2         6       168       169         7       106       227       228       107       175       176
 -2       177        18       110       229       230       111       231       232       233       114
 -1        26    4    0    1
 -2         7       169       179        23       107       228       234       117       177       183
 -2       184        30       111       230       235       119       233       236       237       121
 -1        27    4    0    1
 -2        23       179       186        35       117       234       238       124       184       190
 -2       191        42       119       235       239       126       237       240       241       128
 -1        28    4    0    1
 -2        35       186       193        47       124       238       242       131       191       197
 -2       198        54       126       239       243       133       241       244       245       135
 -1        29    4    0    1
 -2        47       193       200        59       131       242       246       138       198       204
 -2       205        66       133       243       247       140       245       248       249       142
 -1        30    4    0    1
 -2        59       200       207        71       138       246       250       145       205       211
 -2       212        78       140       247       251       147       249       252       253       149
 -1        31    4    0    1
 -2        71       207       214        83       145       250       254       152       212       218
 -2       219        90       147       251       255       154       253       256       257       156
 -1        32    4    0    1
 -2        83       214       221        95       152       254       258       159       219       225
 -2       226       102       154       255       259       161       257       260       261       163
 -3
    1PSTEP                         1           1           1          
  100CL  101 1.000000000         261                     0    1           1
 -4  DISP        4    1
 -5  D1          1    2    1    0
 -5  D2          1    2    2    0
 -5  D3          1    2    3    0
 -5  ALL         1    2    0    0    1ALL
 -1         1 0.00000E+00 0.00000E+00 0.00000E+00
 -1         2 0.00000E+00 0.00000E+00 0.00000E+00
 -1         3-4.71709E-16 1.85496E-03 3.58979E-16
 -1         4 2.25035E-04 1.91979E-03-1.85454E-03
 -1         5 0.00000E+00 0.00000E+00 0.00000E+00
 -1         6 0.00000E+00 0.00000E+00 0.00000E+00
 -1         7-4.63429E-16 1.97792E-03 7.06256E-18
 -1         8-1.11350E-15 2.05312E-03-1.87998E-03
 -1         9 0.00000E+00 0.00000E+00 0.00000E+00
 -1        10-1.74398E-16 3.48111E-04 1.88845E-16
 -1        11 1.13553E-04 1.84335E-03-9.19041E-04
 -1        12 3.08705E-04 5.37979E-04-9.25894E-04
 -1        13 0.00000E+00 0.00000E+00 0.00000E+00
 -1        14 0.00000E+00 0.00000E+00 0.00000E+00
 -1        15-4.60238E-16 1.95961E-03 1.74637E-16
 -1        16 1.11406E-04 2.02859E-03-1.86648E-03
 -1        17 0.00000E+00 0.00000E+00 0.00000E+00
 -1        18-1.37524E-16 4.79732E-04 4.37370E-18
 -1        19-7.94788E-16 1.97015E-03-9.29888E-04
 -1        20-4.36193E-16 6.70335E-04-8.99236E-04
 -1        21-1.42155E-15 7.39926E-03 5.17056E-16
 -1        22 2.24342E-04 7.48306E-03-3.53246E-03
 -1        23-1.41922E-15 7.51148E-03 1.65205E-17
 -1        24-2.77111E-15 7.60419E-03-3.54009E-03
 -1        25-9.19221E-16 4.17220E-03 4.55911E-16
 -1        26 1.11915E-04 7.41497E-03-1.75485E-03
 -1        27 2.54184E-04 4.32007E-03-2.72643E-03
 -1        28-1.41998E-15 7.48163E-03 2.60358E-16
 -1        29 1.12185E-04 7.57013E-03-3.53904E-03
 -1        30-9.00620E-16 4.29741E-03 1.43386E-17
 -1        31-2.09186E-15 7.53195E-03-1.76126E-03
 -1        32-1.90301E-15 4.44084E-03-2.72714E-03
 -1        33-2.46953E-15 1.60429E-02 4.75423E-16
 -1        34 1.90892E-04 1.61274E-02-4.94307E-03
 -1        35-2.46182E-15 1.61376E-02 2.53203E-17
 -1        36-4.45620E-15 1.62265E-02-4.94788E-03
 -1        37-1.94961E-15 1.13542E-02 5.13204E-16
 -1        38 9.55143E-05 1.60603E-02-2.46161E-03
 -1        39 2.13259E-04 1.14690E-02-4.26707E-03
 -1        40-2.47206E-15 1.61150E-02 2.46514E-16
 -1        41 9.53877E-05 1.62017E-02-4.94772E-03
 -1        42-1.95221E-15 1.14612E-02 2.24819E-17
 -1        43-3.46437E-15 1.61571E-02-2.46596E-03
 -1        44-3.62709E-15 1.15729E-02-4.27059E-03
 -1        45-3.25261E-15 2.72625E-02 3.25586E-16
 -1        46 1.53775E-04 2.73359E-02-6.10066E-03
 -1        47-3.26426E-15 2.73391E-02 5.33156E-17
 -1        48-5.93015E-15 2.74137E-02-6.10479E-03
 -1        49-2.90523E-15 2.13581E-02 4.09479E-16
 -1        50 7.69002E-05 2.72801E-02-3.03984E-03
 -1        51 1.73933E-04 2.14480E-02-5.55319E-03
 -1        52-3.26562E-15 2.73199E-02 1.90887E-16
 -1        53 7.68984E-05 2.73939E-02-6.10515E-03
 -1        54-2.91911E-15 2.14453E-02 2.87109E-17
 -1        55-4.58560E-15 2.73573E-02-3.04402E-03
 -1        56-5.21509E-15 2.15340E-02-5.55729E-03
 -1        57-3.70884E-15 4.05410E-02 2.01373E-16
 -1        58 1.16063E-04 4.05994E-02-7.00006E-03
 -1        59-3.66986E-15 4.05992E-02 9.21992E-17
 -1        60-7.25719E-15 4.06569E-02-7.00420E-03
 -1        61-3.50306E-15 3.36758E-02 2.63345E-16
 -1        62 5.78939E-05 4.05558E-02-3.48993E-03
 -1        63 1.35160E-04 3.37438E-02-6.58181E-03
 -1        64-3.69424E-15 4.05846E-02 1.48522E-16
 -1        65 5.80078E-05 4.06430E-02-7.00458E-03
 -1        66-3.52019E-15 3.37434E-02 4.53197E-17
 -1        67-5.45979E-15 4.06135E-02-3.49402E-03
 -1        68-6.65070E-15 3.38114E-02-6.58595E-03
 -1        69-3.79266E-15 5.53628E-02 1.56125E-16
 -1        70 7.69920E-05 5.54088E-02-7.64403E-03
 -1        71-3.77239E-15 5.54024E-02 1.16010E-16
 -1        72-8.33792E-15 5.54438E-02-7.64785E-03
 -1        73-3.73443E-15 4.77933E-02 1.54065E-16
 -1        74 3.90815E-05 5.53758E-02-3.81105E-03
 -1        75 9.58545E-05 4.78403E-02-7.35343E-03
 -1        76-3.76608E-15 5.53921E-02 1.33574E-16
 -1        77 3.85764E-05 5.54347E-02-7.64826E-03
 -1        78-3.77832E-15 4.78410E-02 8.46013E-17
 -1        79-6.04397E-15 5.54134E-02-3.81534E-03
 -1        80-7.83585E-15 4.78888E-02-7.35753E-03
 -1        81-3.90989E-15 7.12086E-02 2.12455E-16
 -1        82 4.40455E-05 7.12415E-02-8.02771E-03
 -1        83-3.84946E-15 7.12293E-02 9.41087E-17
 -1        84-9.17766E-15 7.12547E-02-8.03280E-03
 -1        85-3.77604E-15 6.31961E-02 1.54639E-16
 -1        86 1.98378E-05 7.12214E-02-4.00603E-03
 -1        87 5.84404E-05 6.32195E-02-7.86671E-03
 -1        88-3.89104E-15 7.12242E-02 1.61684E-16
 -1        89 2.16869E-05 7.12574E-02-8.03278E-03
 -1        90-3.81361E-15 6.32245E-02 1.12134E-16
 -1        91-6.49911E-15 7.12376E-02-4.00928E-03
 -1        92-8.86379E-15 6.32513E-02-7.87094E-03
 -1        93-4.37960E-15 8.75799E-02 3.23300E-16
 -1        94-2.27651E-05 8.76459E-02-8.17249E-03
 -1        95-4.29713E-15 8.75640E-02 9.70103E-17
 -1        96-1.01025E-14 8.75949E-02-8.16146E-03
 -1        97-4.00380E-15 7.93762E-02 2.82747E-16
 -1        98-2.48820E-06 8.76076E-02-4.06429E-03
 -1        99 1.13033E-05 7.93765E-02-8.12610E-03
 -1       100-4.32258E-15 8.75703E-02 1.76918E-16
 -1       101-1.08463E-05 8.76029E-02-8.17102E-03
 -1       102-4.03583E-15 7.93818E-02 1.10155E-16
 -1       103-7.14118E-15 8.75774E-02-4.06940E-03
 -1       104-9.87590E-15 7.93873E-02-8.12904E-03
 -1       105 0.00000E+00 0.00000E+00 0.00000E+00
 -1       106 0.00000E+00 0.00000E+00 0.00000E+00
 -1       107-4.69114E-16 1.85496E-03-3.41689E-16
 -1       108-2.25035E-04 1.91979E-03-1.85454E-03
 -1       109 0.00000E+00 0.00000E+00 0.00000E+00
 -1       110 0.00000E+00 0.00000E+00 0.00000E+00
 -1       111-4.57731E-16 1.95961E-03-1.58445E-16
 -1       112-1.11406E-04 2.02859E-03-1.86648E-03
 -1       113 0.00000E+00 0.00000E+00 0.00000E+00
 -1       114-1.71561E-16 3.48111E-04-1.82553E-16
 -1       115-1.13553E-04 1.84335E-03-9.19041E-04
 -1       116-3.08705E-04 5.37979E-04-9.25894E-04
 -1       117-1.42010E-15 7.39926E-03-4.79054E-16
 -1       118-2.24342E-04 7.48306E-03-3.53246E-03
 -1       119-1.42236E-15 7.48163E-03-2.25558E-16
 -1       120-1.12185E-04 7.57013E-03-3.53904E-03
 -1       121-9.15798E-16 4.17220E-03-4.30213E-16
 -1       122-1.11915E-04 7.41497E-03-1.75485E-03
 -1       123-2.54184E-04 4.32007E-03-2.72643E-03
 -1       124-2.46591E-15 1.60429E-02-4.42379E-16
 -1       125-1.90892E-04 1.61274E-02-4.94307E-03
 -1       126-2.45817E-15 1.61150E-02-2.03830E-16
 -1       127-9.53877E-05 1.62017E-02-4.94772E-03
 -1       128-1.94850E-15 1.13542E-02-4.76004E-16
 -1       129-9.55143E-05 1.60603E-02-2.46161E-03
 -1       130-2.13259E-04 1.14690E-02-4.26707E-03
 -1       131-3.25174E-15 2.72625E-02-2.63244E-16
 -1       132-1.53775E-04 2.73359E-02-6.10066E-03
 -1       133-3.26128E-15 2.73199E-02-1.06008E-16
 -1       134-7.68984E-05 2.73939E-02-6.10515E-03
 -1       135-2.89075E-15 2.13581E-02-3.66786E-16
 -1       136-7.69002E-05 2.72801E-02-3.03984E-03
 -1       137-1.73933E-04 2.14480E-02-5.55319E-03
 -1       138-3.68455E-15 4.05410E-02-8.27732E-17
 -1       139-1.16063E-04 4.05994E-02-7.00006E-03
 -1       140-3.67501E-15 4.05846E-02 7.82354E-18
 -1       141-5.80078E-05 4.06430E-02-7.00458E-03
 -1       142-3.50832E-15 3.36758E-02-1.58998E-16
 -1       143-5.78939E-05 4.05558E-02-3.48993E-03
 -1       144-1.35160E-04 3.37438E-02-6.58181E-03
 -1       145-3.78891E-15 5.53628E-02 4.11464E-17
 -1       146-7.69920E-05 5.54088E-02-7.64403E-03
 -1       147-3.79384E-15 5.53921E-02 7.60265E-17
 -1       148-3.85764E-05 5.54347E-02-7.64826E-03
 -1       149-3.77781E-15 4.77933E-02 4.80437E-17
 -1       150-3.90815E-05 5.53758E-02-3.81105E-03
 -1       151-9.58545E-05 4.78403E-02-7.35343E-03
 -1       152-3.79080E-15 7.12086E-02-2.06030E-17
 -1       153-4.40455E-05 7.12415E-02-8.02771E-03
 -1       154-3.81140E-15 7.12242E-02 2.87043E-17
 -1       155-2.16869E-05 7.12574E-02-8.03278E-03
 -1       156-3.83209E-15 6.31961E-02 7.36038E-17
 -1       157-1.98378E-05 7.12214E-02-4.00603E-03
 -1       158-5.84404E-05 6.32195E-02-7.86671E-03
 -1       159-4.14859E-15 8.75799E-02-5.63785E-17
 -1       160 2.27651E-05 8.76459E-02-8.17249E-03
 -1       161-4.24864E-15 8.75703E-02 1.98109E-18
 -1       162 1.08463E-05 8.76029E-02-8.17102E-03
 -1       163-4.06493E-15 7.93762E-02-8.83354E-17
 -1       164 2.48820E-06 8.76076E-02-4.06429E-03
 -1       165-1.13033E-05 7.93765E-02-8.12610E-03
 -1       166 0.00000E+00 0.00000E+00 0.00000E+00
 -1       167-2.25035E-04 1.91979E-03 1.85454E-03
 -1       168 0.00000E+00 0.00000E+00 0.00000E+00
 -1       169 2.12178E-16 2.05312E-03 1.87998E-03
 -1       170 0.00000E+00 0.00000E+00 0.00000E+00
 -1       171-3.08705E-04 5.37979E-04 9.25894E-04
 -1       172-1.13553E-04 1.84335E-03 9.19041E-04
 -1       173 0.00000E+00 0.00000E+00 0.00000E+00
 -1       174-1.11406E-04 2.02859E-03 1.86648E-03
 -1       175 0.00000E+00 0.00000E+00 0.00000E+00
 -1       176 2.09923E-16 6.70335E-04 8.99236E-04
 -1       177-1.33462E-16 1.97015E-03 9.29888E-04
 -1       178-2.24342E-04 7.48306E-03 3.53246E-03
 -1       179-6.64955E-17 7.60419E-03 3.54009E-03
 -1       180-2.54184E-04 4.32007E-03 2.72643E-03
 -1       181-1.11915E-04 7.41497E-03 1.75485E-03
 -1       182-1.12185E-04 7.57013E-03 3.53904E-03
 -1       183 1.26048E-16 4.44084E-03 2.72714E-03
 -1       184-7.41589E-16 7.53195E-03 1.76126E-03
 -1       185-1.90892E-04 1.61274E-02 4.94307E-03
 -1       186-4.93515E-16 1.62265E-02 4.94788E-03
 -1       187-2.13259E-04 1.14690E-02 4.26707E-03
 -1       188-9.55143E-05 1.60603E-02 2.46161E-03
 -1       189-9.53877E-05 1.62017E-02 4.94772E-03
 -1       190-2.78748E-16 1.15729E-02 4.27059E-03
 -1       191-1.47413E-15 1.61571E-02 2.46596E-03
 -1       192-1.53775E-04 2.73359E-02 6.10066E-03
 -1       193-6.38915E-16 2.74137E-02 6.10479E-03
 -1       194-1.73933E-04 2.14480E-02 5.55319E-03
 -1       195-7.69002E-05 2.72801E-02 3.03984E-03
 -1       196-7.68984E-05 2.73939E-02 6.10515E-03
 -1       197-6.08075E-16 2.15340E-02 5.55729E-03
 -1       198-1.94409E-15 2.73573E-02 3.04402E-03
 -1       199-1.16063E-04 4.05994E-02 7.00006E-03
 -1       200-1.61980E-16 4.06569E-02 7.00420E-03
 -1       201-1.35160E-04 3.37438E-02 6.58181E-03
 -1       202-5.78939E-05 4.05558E-02 3.48993E-03
 -1       203-5.80078E-05 4.06430E-02 7.00458E-03
 -1       204-4.14514E-16 3.38114E-02 6.58595E-03
 -1       205-1.89907E-15 4.06135E-02 3.49402E-03
 -1       206-7.69920E-05 5.54088E-02 7.64403E-03
 -1       207 7.24674E-16 5.54438E-02 7.64785E-03
 -1       208-9.58545E-05 4.78403E-02 7.35343E-03
 -1       209-3.90815E-05 5.53758E-02 3.81105E-03
 -1       210-3.85764E-05 5.54347E-02 7.64826E-03
 -1       211 2.95011E-16 4.78888E-02 7.35753E-03
 -1       212-1.52090E-15 5.54134E-02 3.81534E-03
 -1       213-4.40455E-05 7.12415E-02 8.02771E-03
 -1       214 1.52309E-15 7.12547E-02 8.03280E-03
 -1       215-5.84404E-05 6.32195E-02 7.86671E-03
 -1       216-1.98378E-05 7.12214E-02 4.00603E-03
 -1       217-2.16869E-05 7.12574E-02 8.03278E-03
 -1       218 1.31259E-15 6.32513E-02 7.87094E-03
 -1       219-1.13443E-15 7.12376E-02 4.00928E-03
 -1       220 2.27651E-05 8.76459E-02 8.17249E-03
 -1       221 1.64074E-15 8.75949E-02 8.16146E-03
 -1       222-1.13033E-05 7.93765E-02 8.12610E-03
 -1       223 2.48820E-06 8.76076E-02 4.06429E-03
 -1       224 1.08463E-05 8.76029E-02 8.17102E-03
 -1       225 1.83601E-15 7.93873E-02 8.12904E-03
 -1       226-1.34269E-15 8.75774E-02 4.06940E-03
 -1       227 0.00000E+00 0.00000E+00 0.00000E+00
 -1       228 2.25035E-04 1.91979E-03 1.85454E-03
 -1       229 0.00000E+00 0.00000E+00 0.00000E+00
 -1       230 1.11406E-04 2.02859E-03 1.86648E-03
 -1       231 0.00000E+00 0.00000E+00 0.00000E+00
 -1       232 3.08705E-04 5.37979E-04 9.25894E-04
 -1       233 1.13553E-04 1.84335E-03 9.19041E-04
 -1       234 2.24342E-04 7.48306E-03 3.53246E-03
 -1       235 1.12185E-04 7.57013E-03 3.53904E-03
 -1       236 2.54184E-04 4.32007E-03 2.72643E-03
 -1       237 1.11915E-04 7.41497E-03 1.75485E-03
 -1       238 1.90892E-04 1.61274E-02 4.94307E-03
 -1       239 9.53877E-05 1.62017E-02 4.94772E-03
 -1       240 2.13259E-04 1.14690E-02 4.26707E-03
 -1       241 9.55143E-05 1.60603E-02 2.46161E-03
 -1       242 1.53775E-04 2.73359E-02 6.10066E-03
 -1       243 7.68984E-05 2.73939E-02 6.10515E-03
 -1       244 1.73933E-04 2.14480E-02 5.55319E-03
 -1       245 7.69002E-05 2.72801E-02 3.03984E-03
 -1       246 1.16063E-04 4.05994E-02 7.00006E-03
 -1       247 5.80078E-05 4.06430E-02 7.00458E-03
 -1       248 1.35160E-04 3.37438E-02 6.58181E-03
 -1       249 5.78939E-05 4.05558E-02 3.48993E-03
 -1       250 7.69920E-05 5.54088E-02 7.64403E-03
 -1       251 3.85764E-05 5.54347E-02 7.64826E-03
 -1       252 9.58545E-05 4.78403E-02 7.35343E-03
 -1       253 3.90815E-05 5.53758E-02 3.81105E-03
 -1       254 4.40455E-05 7.12415E-02 8.02771E-03
 -1       255 2.16869E-05 7.12574E-02 8.03278E-03
 -1       256 5.84404E-05 6.32195E-02 7.86671E-03
 -1       257 1.98378E-05 7.12214E-02 4.00603E-03
 -1       258-2.27651E-05 8.76459E-02 8.17249E-03
 -1       259-1.08463E-05 8.76029E-02 8.17102E-03
 -1       260 1.13033E-05 7.93765E-02 8.12610E-03
 -1       261-2.48820E-06 8.76076E-02 4.06429E-03
 -3
    1PSTEP                         2           1           1          
  100CL  101 1.000000000         261                     0    1           1
 -4  STRESS      6    1
 -5  SXX         1    4    1    1
 -5  SYY         1    4    2    2
 -5  SZZ         1    4    3    3
 -5  SXY         1    4    1    2
 -5  SYZ         1    4    2    3
 -5  SZX         1    4    3    1
 -1         1-1.23907E+08-1.32250E+08-4.63876E+08 1.40530E+07 1.87935E+07 7.73133E+07
 -1         2 2.82079E-05 2.60137E-05 9.86420E-05 1.35737E+07-3.72558E+07-1.72205E-05
 -1         3-7.13393E-06-4.00282E-06 5.43226E-05-2.74507E+06 2.30430E+07 9.11386E-07
 -1         4 2.75927E+07 3.14286E+07-3.67000E+08-4.09192E+06 2.25014E+06-1.74408E+07
 -1         5-1.08473E+08-1.17775E+08-4.26904E+08-4.85824E-06 5.49548E+07-4.87785E-05
 -1         6 6.02566E-07 1.97440E-07 2.44752E-06-3.37139E-07-4.94106E+05-5.84600E-06
 -1         7-1.47056E-06-1.21072E-07 1.90106E-06-5.19911E-07 1.75594E+07-1.30082E-05
 -1         8 1.86030E+07 2.83899E+07-3.81482E+08 8.47271E-07-6.85417E+06-1.08465E-04
 -1         9-4.89042E+07-3.61194E+07-2.18442E+08 1.38134E+07-9.23114E+06 3.86846E+07
 -1        10 9.04780E-06 7.48597E-06 7.95498E-05 8.21904E+06 2.83543E+06-5.90920E-06
 -1        11 9.98338E+06 6.13903E+06-1.87115E+08-3.41850E+06 1.26466E+07-8.82490E+06
 -1        12-3.03976E+07-3.71094E+07-4.08435E+08 7.52592E+06 2.70016E+06 1.56334E+07
 -1        13-1.16190E+08-1.25012E+08-4.45390E+08 3.48920E+06 3.68741E+07 3.65063E+07
 -1        14 7.98702E-06 1.00695E-05 4.71156E-05 3.00986E+06-1.88749E+07-1.16850E-05
 -1        15-1.75694E-06-1.48267E-06 2.86922E-05 5.60965E+05 2.03012E+07-6.03462E-06
 -1        16 2.30979E+07 2.99093E+07-3.74241E+08-7.85469E+05-2.30201E+06-8.00118E+06
 -1        17-4.14708E+07-2.96447E+07-2.00139E+08-1.63540E-06 2.72304E+07-2.72475E-05
 -1        18-4.36790E-07 6.43544E-07 1.61864E-06-3.23053E-07 1.54863E+07-1.05700E-05
 -1        19 5.29755E+06 4.24382E+06-1.94617E+08-4.40981E-07 5.35263E+06-5.71960E-05
 -1        20-3.46576E+07-3.83545E+07-4.15167E+08-2.80794E-06 1.49766E+07-8.08932E-05
 -1        21 1.23192E-06-2.22994E-07 1.30516E-05 2.23663E+06 2.02889E+07 1.15778E-06
 -1        22 1.20567E+06-2.79421E+06-3.23334E+08 2.24789E+06-5.27839E+05-2.92675E+06
 -1        23 4.41296E-06 2.50989E-06 3.22773E-06 3.20381E-06 1.66239E+07-1.04362E-05
 -1        24-8.72568E+05-4.98981E+06-3.28230E+08-2.49682E-06-3.86517E+05-9.11392E-05
 -1        25-2.68267E-06 3.91155E-08 3.27998E-05-2.52477E+06 1.54355E+07-9.68139E-07
 -1        26 2.27898E+06 2.56004E+06-1.59915E+08 2.24226E+06 9.88054E+06-1.33685E+06
 -1        27 7.66332E+04 5.48004E+06-3.50743E+08-2.81629E+06 4.36824E+06 1.58358E+06
 -1        28 1.54403E-07 2.30793E-08 6.85453E-06 2.18424E+05 1.84564E+07-4.87285E-06
 -1        29 1.66553E+05-3.89201E+06-3.25782E+08 2.28042E+05-4.57178E+05-2.08694E+06
 -1        30 1.63820E-06 1.85613E-06 2.77092E-06 1.28592E-06 1.34589E+07-1.10416E-05
 -1        31 1.42604E+06 1.99947E+06-1.62280E+08 8.11182E-07 8.11868E+06-4.83273E-05
 -1        32-4.53827E+04 7.52227E+06-3.47052E+08 2.67988E-07 2.73587E+06-9.90976E-05
 -1        33-8.98493E-06-2.61235E-05-3.30554E-05-3.29730E+05 1.82483E+07-2.57730E-06
 -1        34 1.26401E+06 2.58654E+06-2.69386E+08-3.35879E+05 1.82058E+06-1.22199E+06
 -1        35-1.12120E-05 1.21748E-05-9.32720E-07 1.46503E-06 1.46160E+07-8.49606E-06
 -1        36 6.96012E+05 2.21032E+06-2.70249E+08 1.24561E-06 1.31356E+06-8.06587E-05
 -1        37-2.52348E-06-1.10688E-05-1.15260E-05 4.75021E+05 1.70269E+07-3.02486E-06
 -1        38 5.17382E+05 1.02537E+06-1.34837E+08-3.32805E+05 1.00345E+07-5.02754E+05
 -1        39-1.37181E+06-2.89662E+06-2.97634E+08 5.14265E+05 3.30788E+06-1.09330E+05
 -1        40-9.29821E-06-7.70367E-06-1.67862E-05 5.80918E+04 1.64322E+07-5.86875E-06
 -1        41 9.80011E+05 2.39842E+06-2.69818E+08 5.80922E+04 1.56707E+06-9.26935E+05
 -1        42-2.67292E-06 6.32100E-06 2.67453E-06-4.59608E-07 1.34114E+07-8.33570E-06
 -1        43 1.61766E+05 6.57108E+05-1.35327E+08-3.77418E-07 7.96476E+06-4.21943E-05
 -1        44-1.14630E+06-2.70728E+06-2.96826E+08-9.44943E-07 2.25222E+06-8.58298E-05
 -1        45 3.41506E-06-2.55423E-05-3.83318E-05 1.43926E+05 1.80942E+07-1.00357E-07
 -1        46-2.17420E+04-9.52777E+04-2.16065E+08 1.79563E+05 2.06588E+06-8.00792E+05
 -1        47 7.37907E-06 2.46988E-05 9.05211E-06-5.63992E-06 1.43705E+07 1.18439E-06
 -1        48-9.48811E+04-2.88971E+05-2.16240E+08 6.00948E-06 1.46793E+06-1.06437E-04
 -1        49-2.76027E-06-2.07919E-05-3.72594E-05-1.52579E+05 1.71761E+07-6.29021E-07
 -1        50 1.44708E+05 3.05829E+05-1.07872E+08 1.61744E+05 1.00800E+07-2.89695E+05
 -1        51 7.76754E+04 2.65508E+05-2.42931E+08-1.89594E+05 3.08460E+06-5.85141E+05
 -1        52 5.40416E-06-1.71686E-06-1.52832E-05 5.20753E+03 1.62323E+07 4.44626E-07
 -1        53-5.83115E+04-1.92124E+05-2.16153E+08 1.78874E+04 1.76690E+06-7.47122E+05
 -1        54-4.06922E-06 1.21364E-05 8.28132E-06 1.86747E-06 1.37280E+07-2.88110E-06
 -1        55 1.09328E+05 2.13996E+05-1.07960E+08 1.82555E-06 7.91921E+06-4.93673E-05
 -1        56 9.81875E+04 4.25150E+05-2.42757E+08 6.37104E-06 2.00969E+06-8.69030E-05
 -1        57-1.15995E-05-1.67823E-05-3.62894E-05-1.09332E+05 1.77879E+07 4.34023E-06
 -1        58 5.30603E+04-1.11729E+05-1.62000E+08-1.52414E+05 2.41162E+06-7.58743E+05
 -1        59-1.13430E-05-8.66193E-06 4.07244E-06 5.20766E-06 1.40842E+07-3.21434E-07
 -1        60 5.03134E+04 1.13563E+05-1.61967E+08 1.29289E-05 1.71471E+06-1.06950E-04
 -1        61-7.55333E-06-2.75307E-05-3.69190E-05 6.98171E+03 1.73641E+07-2.90090E-06
 -1        62-1.05364E+04-1.05794E+05-8.10080E+07-1.30873E+05 1.00998E+07-2.62562E+05
 -1        63-4.16871E+04-2.18868E+05-1.89005E+08 6.44284E+03 2.87563E+06-5.89910E+05
 -1        64-1.38956E-05-1.53711E-05-1.79780E-05-2.64845E+04 1.59361E+07 2.38992E-06
 -1        65 5.16869E+04 9.16861E+02-1.61984E+08 1.61142E+04 2.06316E+06-7.20520E+05
 -1        66-1.48983E-06 7.94795E-06 9.37388E-06 1.31212E-06 1.38748E+07 3.04946E-06
 -1        67-1.01708E+04 1.82281E+04-8.09971E+07 8.70415E-06 7.89947E+06-4.98136E-05
 -1        68-4.13640E+04-1.71169E+05-1.88980E+08 7.41807E-06 1.88399E+06-1.10534E-04
 -1        69-1.59768E-06 3.02880E-05 8.05559E-06 2.71215E+05 1.83767E+07 6.48683E-06
 -1        70-3.08426E+05 2.34056E+05-1.07861E+08 2.55304E+05 1.51005E+06-8.34020E+05
 -1        71 7.91755E-06-9.66671E-05-1.40931E-05-1.25872E-06 1.46040E+07 5.99258E-06
 -1        72-1.22138E+05-1.32073E+05-1.07774E+08 1.28866E-06 1.50764E+06-1.20196E-04
 -1        73-2.07050E-06 6.05237E-06-7.21263E-06 1.18154E+05 1.74955E+07 7.60122E-06
 -1        74-2.73412E+05-3.09856E+05-5.41731E+07 2.63259E+05 9.94337E+06-3.16459E+05
 -1        75-4.18576E+04 3.13543E+05-1.35011E+08 1.44376E+05 2.80103E+06-6.79886E+05
 -1        76 3.93097E-06-3.26248E-05-2.66096E-06 7.98078E+04 1.64904E+07 5.76626E-06
 -1        77-2.15282E+05 5.09915E+04-1.07817E+08-2.55866E+05 1.50885E+06-7.36435E+05
 -1        78-6.21170E-07-4.39922E-05-7.66595E-06 1.14972E-06 1.39301E+07 3.19019E-06
 -1        79-8.82128E+04-3.13812E+05-5.40020E+07 8.41334E-07 8.05585E+06-5.28768E-05
 -1        80-5.38102E+04 2.79616E+04-1.35082E+08 7.60738E-06 1.77180E+06-1.07912E-04
 -1        81-1.45839E-05-4.65850E-05 1.86098E-05-1.14237E+06 1.73785E+07-3.52249E-06
 -1        82 9.69004E+05-3.92293E+06-5.36907E+07-1.65937E+06 2.34719E+06-5.14478E+05
 -1        83-2.42926E-05 1.84739E-06-9.88328E-06 9.77402E-06 1.44471E+07 9.89494E-06
 -1        84 4.09022E+05-1.10867E+06-5.46098E+07 1.75355E-05 1.82571E+06-9.71385E-05
 -1        85-7.05826E-06 3.13995E-06 1.04137E-05-3.96614E+05 1.66567E+07-8.49341E-06
 -1        86 2.17657E+05-2.09579E+06-2.65805E+07-1.40087E+06 9.86283E+06-1.07650E+05
 -1        87 4.17541E+05-3.45171E+05-8.10166E+07-3.68495E+05 3.73564E+06-4.07194E+05
 -1        88-2.84094E-05-1.38767E-05 3.51973E-06-5.58019E+05 1.59128E+07 1.45237E-06
 -1        89 6.89013E+05-2.51580E+06-5.41502E+07 1.18353E+05 2.08645E+06-4.64624E+05
 -1        90-1.08655E-05-4.28172E-05-1.86649E-05 5.78953E-06 1.33821E+07 6.17131E-06
 -1        91-6.56968E+04-4.74312E+05-2.72656E+07 1.70488E-05 8.13638E+06-4.10058E-05
 -1        92 1.89271E+05 2.48331E+05-8.09403E+07 1.88174E-05 2.22401E+06-8.68659E-05
 -1        93-2.44379E-05 1.89657E-05 1.05402E-05 5.19405E+06 1.84574E+07-1.02003E-05
 -1        94-3.77884E+06 1.63785E+07-3.02074E+06 6.71066E+06 7.56982E+06-2.35369E+06
 -1        95-1.46496E-05-8.47327E-05-5.16305E-05 3.00649E-05 8.95877E+06-2.06656E-05
 -1        96-4.68297E+06 4.29660E+06 4.15292E+04 2.15773E-05 1.01242E+06-3.96608E-05
 -1        97-2.17673E-05-2.38070E-05 1.11078E-05 1.96390E+06 1.98282E+07 7.30995E-06
 -1        98 5.36649E+05 9.89611E+06 7.19244E+05 5.95235E+06 1.30136E+07-3.06082E+05
 -1        99-1.80769E+06 3.90015E+06-2.80105E+07 2.00840E+06 2.18610E+06-1.86322E+06
 -1       100-2.17401E-05-2.84923E-05-2.13394E-05 3.01021E+06 1.37081E+07-1.70425E-05
 -1       101-4.23090E+06 1.03375E+07-1.48960E+06 7.30817E+04 4.29112E+06-2.46073E+06
 -1       102-1.71166E-05-4.85819E-05-2.96356E-05 1.64737E-05 1.32659E+07-8.02835E-06
 -1       103-8.59451E+05 2.18715E+06 7.71614E+05 3.56578E-05 4.98560E+06-2.42255E-05
 -1       104-2.25229E+06 4.64413E+05-2.71788E+07 8.98936E-06 7.18299E+05-9.71698E-05
 -1       105-1.23907E+08-1.32250E+08-4.63876E+08-1.40530E+07 1.87935E+07-7.73133E+07
 -1       106-2.73213E-05-2.40467E-05-9.60305E-05-1.35737E+07-3.72558E+07-1.60406E-05
 -1       107 7.82125E-06 2.56859E-06-5.08167E-05 2.74507E+06 2.30430E+07 1.10210E-06
 -1       108 2.75927E+07 3.14286E+07-3.67000E+08 4.09192E+06 2.25014E+06 1.74408E+07
 -1       109-1.16190E+08-1.25012E+08-4.45390E+08-3.48920E+06 3.68741E+07-3.65063E+07
 -1       110-6.94208E-06-8.88482E-06-4.33605E-05-3.00986E+06-1.88749E+07-1.07916E-05
 -1       111 6.30505E-07 6.42613E-07-2.50381E-05-5.60965E+05 2.03012E+07-5.96679E-06
 -1       112 2.30979E+07 2.99093E+07-3.74241E+08 7.85469E+05-2.30201E+06 8.00118E+06
 -1       113-4.89042E+07-3.61194E+07-2.18442E+08-1.38134E+07-9.23114E+06-3.86846E+07
 -1       114-8.20123E-06-7.83987E-06-7.56718E-05-8.21904E+06 2.83543E+06-5.23659E-06
 -1       115 9.98338E+06 6.13903E+06-1.87115E+08 3.41850E+06 1.26466E+07 8.82490E+06
 -1       116-3.03976E+07-3.71094E+07-4.08435E+08-7.52592E+06 2.70016E+06-1.56334E+07
 -1       117-2.42703E-06 7.61426E-06-7.44313E-06-2.23663E+06 2.02889E+07 5.75950E-07
 -1       118 1.20567E+06-2.79421E+06-3.23334E+08-2.24789E+06-5.27839E+05 2.92675E+06
 -1       119 3.66080E-06 6.18174E-06-8.22591E-07-2.18424E+05 1.84564E+07-4.69649E-06
 -1       120 1.66553E+05-3.89201E+06-3.25782E+08-2.28042E+05-4.57178E+05 2.08694E+06
 -1       121 2.16230E-06 2.75858E-06-2.83159E-05 2.52477E+06 1.54355E+07-1.50962E-06
 -1       122 2.27898E+06 2.56004E+06-1.59915E+08-2.24226E+06 9.88054E+06 1.33685E+06
 -1       123 7.66332E+04 5.48004E+06-3.50743E+08 2.81629E+06 4.36824E+06-1.58358E+06
 -1       124 8.52783E-06-4.02168E-06 2.37413E-05 3.29730E+05 1.82483E+07 1.12613E-06
 -1       125 1.26401E+06 2.58654E+06-2.69386E+08 3.35879E+05 1.82058E+06 1.22199E+06
 -1       126-2.14239E-06 4.80586E-06 1.11964E-05-5.80918E+04 1.64322E+07-3.35288E-06
 -1       127 9.80011E+05 2.39842E+06-2.69818E+08-5.80922E+04 1.56707E+06 9.26935E+05
 -1       128 3.77453E-06 2.66521E-06 9.71556E-06-4.75021E+05 1.70269E+07-2.19821E-07
 -1       129 5.17382E+05 1.02537E+06-1.34837E+08 3.32805E+05 1.00345E+07 5.02754E+05
 -1       130-1.37181E+06-2.89662E+06-2.97634E+08-5.14265E+05 3.30788E+06 1.09330E+05
 -1       131-5.92002E-06-1.18384E-05 4.20585E-05-1.43926E+05 1.80942E+07-1.67707E-06
 -1       132-2.17420E+04-9.52777E+04-2.16065E+08-1.79563E+05 2.06588E+06 8.00792E+05
 -1       133 7.22415E-07 7.72520E-06 2.61987E-05-5.20753E+03 1.62323E+07-1.48939E-07
 -1       134-5.83115E+04-1.92124E+05-2.16153E+08-1.78874E+04 1.76690E+06 7.47122E+05
 -1       135 4.41913E-07-5.42973E-06 3.43472E-05 1.52579E+05 1.71761E+07 8.47358E-08
 -1       136 1.44708E+05 3.05829E+05-1.07872E+08-1.61744E+05 1.00800E+07 2.89695E+05
 -1       137 7.76754E+04 2.65508E+05-2.42931E+08 1.89594E+05 3.08460E+06 5.85141E+05
 -1       138 1.34257E-05-1.01058E-05 5.63953E-05 1.09332E+05 1.77879E+07 1.41002E-06
 -1       139 5.30603E+04-1.11729E+05-1.62000E+08 1.52414E+05 2.41162E+06 7.58743E+05
 -1       140 3.46570E-06-6.73480E-06 3.21034E-05 2.64845E+04 1.59361E+07 1.63782E-07
 -1       141 5.16869E+04 9.16861E+02-1.61984E+08-1.61142E+04 2.06316E+06 7.20520E+05
 -1       142 6.56905E-06 5.18051E-06 3.91118E-05-6.98171E+03 1.73641E+07 3.17491E-06
 -1       143-1.05364E+04-1.05794E+05-8.10080E+07 1.30873E+05 1.00998E+07 2.62562E+05
 -1       144-4.16871E+04-2.18868E+05-1.89005E+08-6.44284E+03 2.87563E+06 5.89910E+05
 -1       145 1.16368E-05 3.55381E-05 1.71969E-05-2.71215E+05 1.83767E+07-5.31302E-06
 -1       146-3.08426E+05 2.34056E+05-1.07861E+08-2.55304E+05 1.51005E+06 8.34020E+05
 -1       147 9.00615E-06-3.11292E-05 1.19413E-06-7.98078E+04 1.64904E+07 8.13234E-07
 -1       148-2.15282E+05 5.09915E+04-1.07817E+08 2.55866E+05 1.50885E+06 7.36435E+05
 -1       149-2.81580E-07-6.51332E-06 2.70419E-05-1.18154E+05 1.74955E+07-1.39597E-06
 -1       150-2.73412E+05-3.09856E+05-5.41731E+07-2.63259E+05 9.94337E+06 3.16459E+05
 -1       151-4.18576E+04 3.13543E+05-1.35011E+08-1.44376E+05 2.80103E+06 6.79886E+05
 -1       152 1.79661E-05 8.68435E-06-4.87179E-05 1.14237E+06 1.73785E+07-6.36457E-06
 -1       153 9.69004E+05-3.92293E+06-5.36907E+07 1.65937E+06 2.34719E+06 5.14478E+05
 -1       154 5.80773E-06-3.22587E-06-2.84571E-05 5.58019E+05 1.59128E+07 3.49907E-06
 -1       155 6.89013E+05-2.51580E+06-5.41502E+07-1.18353E+05 2.08645E+06 4.64624E+05
 -1       156 2.37099E-05 4.34788E-05 1.28802E-06 3.96614E+05 1.66567E+07 7.15376E-06
 -1       157 2.17657E+05-2.09579E+06-2.65805E+07 1.40087E+06 9.86283E+06 1.07650E+05
 -1       158 4.17541E+05-3.45171E+05-8.10166E+07 3.68495E+05 3.73564E+06 4.07194E+05
 -1       159-1.03237E-06 1.02059E-04 7.37584E-05-5.19405E+06 1.84574E+07 9.96818E-06
 -1       160-3.77884E+06 1.63785E+07-3.02074E+06-6.71066E+06 7.56982E+06 2.35369E+06
 -1       161-5.64475E-06 4.27209E-06 1.18583E-05-3.01021E+06 1.37081E+07-3.73914E-06
 -1       162-4.23090E+06 1.03375E+07-1.48960E+06-7.30817E+04 4.29112E+06 2.46073E+06
 -1       163 8.67830E-06 3.31454E-05 1.37615E-05-1.96390E+06 1.98282E+07-1.42280E-05
 -1       164 5.36649E+05 9.89611E+06 7.19244E+05-5.95235E+06 1.30136E+07 3.06082E+05
 -1       165-1.80769E+06 3.90015E+06-2.80105E+07-2.00840E+06 2.18610E+06 1.86322E+06
 -1       166 1.23907E+08 1.32250E+08 4.63876E+08 1.40530E+07 1.87935E+07-7.73133E+07
 -1       167-2.75927E+07-3.14286E+07 3.67000E+08-4.09192E+06 2.25014E+06 1.74408E+07
 -1       168 1.08473E+08 1.17775E+08 4.26904E+08 1.06590E-06 5.49548E+07 5.25699E-05
 -1       169-1.86030E+07-2.83899E+07 3.81482E+08 1.17347E-07-6.85417E+06 7.68924E-05
 -1       170 4.89042E+07 3.61194E+07 2.18442E+08 1.38134E+07-9.23114E+06-3.86846E+07
 -1       171 3.03976E+07 3.71094E+07 4.08435E+08 7.52592E+06 2.70016E+06-1.56334E+07
 -1       172-9.98338E+06-6.13903E+06 1.87115E+08-3.41850E+06 1.26466E+07 8.82490E+06
 -1       173 1.16190E+08 1.25012E+08 4.45390E+08 3.48920E+06 3.68741E+07-3.65063E+07
 -1       174-2.30979E+07-2.99093E+07 3.74241E+08-7.85469E+05-2.30201E+06 8.00118E+06
 -1       175 4.14708E+07 2.96447E+07 2.00139E+08-5.97443E-07 2.72304E+07 2.32970E-05
 -1       176 3.46576E+07 3.83545E+07 4.15167E+08 1.03004E-06 1.49766E+07 6.17777E-05
 -1       177-5.29755E+06-4.24382E+06 1.94617E+08 4.03263E-07 5.35263E+06 2.84013E-05
 -1       178-1.20567E+06 2.79421E+06 3.23334E+08 2.24789E+06-5.27839E+05 2.92675E+06
 -1       179 8.72568E+05 4.98981E+06 3.28230E+08-3.15154E-06-3.86517E+05 6.45635E-05
 -1       180-7.66332E+04-5.48004E+06 3.50743E+08-2.81629E+06 4.36824E+06-1.58358E+06
 -1       181-2.27898E+06-2.56004E+06 1.59915E+08 2.24226E+06 9.88054E+06 1.33685E+06
 -1       182-1.66553E+05 3.89201E+06 3.25782E+08 2.28042E+05-4.57178E+05 2.08694E+06
 -1       183 4.53827E+04-7.52227E+06 3.47052E+08-1.58953E-06 2.73587E+06 7.28143E-05
 -1       184-1.42604E+06-1.99947E+06 1.62280E+08-4.31552E-07 8.11868E+06 2.46032E-05
 -1       185-1.26401E+06-2.58654E+06 2.69386E+08-3.35879E+05 1.82058E+06 1.22199E+06
 -1       186-6.96012E+05-2.21032E+06 2.70249E+08 1.38654E-06 1.31356E+06 6.54518E-05
 -1       187 1.37181E+06 2.89662E+06 2.97634E+08 5.14265E+05 3.30788E+06 1.09330E+05
 -1       188-5.17382E+05-1.02537E+06 1.34837E+08-3.32805E+05 1.00345E+07 5.02754E+05
 -1       189-9.80011E+05-2.39842E+06 2.69818E+08 5.80922E+04 1.56707E+06 9.26935E+05
 -1       190 1.14630E+06 2.70728E+06 2.96826E+08-3.24822E-06 2.25222E+06 6.34064E-05
 -1       191-1.61766E+05-6.57108E+05 1.35327E+08 3.15851E-06 7.96476E+06 2.60948E-05
 -1       192 2.17420E+04 9.52777E+04 2.16065E+08 1.79563E+05 2.06588E+06 8.00792E+05
 -1       193 9.48811E+04 2.88971E+05 2.16240E+08-6.69679E-08 1.46793E+06 9.98501E-05
 -1       194-7.76754E+04-2.65508E+05 2.42931E+08-1.89594E+05 3.08460E+06 5.85141E+05
 -1       195-1.44708E+05-3.05829E+05 1.07872E+08 1.61744E+05 1.00800E+07 2.89695E+05
 -1       196 5.83115E+04 1.92124E+05 2.16153E+08 1.78874E+04 1.76690E+06 7.47122E+05
 -1       197-9.81875E+04-4.25150E+05 2.42757E+08 3.80168E-06 2.00969E+06 7.63537E-05
 -1       198-1.09328E+05-2.13996E+05 1.07960E+08-4.49421E-06 7.91921E+06 4.72581E-05
 -1       199-5.30603E+04 1.11729E+05 1.62000E+08-1.52414E+05 2.41162E+06 7.58743E+05
 -1       200-5.03134E+04-1.13563E+05 1.61967E+08 1.43583E-05 1.71471E+06 1.17920E-04
 -1       201 4.16871E+04 2.18868E+05 1.89005E+08 6.44284E+03 2.87563E+06 5.89910E+05
 -1       202 1.05364E+04 1.05794E+05 8.10080E+07-1.30873E+05 1.00998E+07 2.62562E+05
 -1       203-5.16869E+04-9.16861E+02 1.61984E+08 1.61142E+04 2.06316E+06 7.20520E+05
 -1       204 4.13640E+04 1.71169E+05 1.88980E+08 9.05951E-06 1.88399E+06 1.10844E-04
 -1       205 1.01708E+04-1.82281E+04 8.09971E+07 1.01471E-05 7.89947E+06 5.49768E-05
 -1       206 3.08426E+05-2.34056E+05 1.07861E+08 2.55304E+05 1.51005E+06 8.34020E+05
 -1       207 1.22138E+05 1.32073E+05 1.07774E+08 9.73191E-06 1.50764E+06 1.53492E-04
 -1       208 4.18576E+04-3.13543E+05 1.35011E+08 1.44376E+05 2.80103E+06 6.79886E+05
 -1       209 2.73412E+05 3.09856E+05 5.41731E+07 2.63259E+05 9.94337E+06 3.16459E+05
 -1       210 2.15282E+05-5.09915E+04 1.07817E+08-2.55866E+05 1.50885E+06 7.36435E+05
 -1       211 5.38102E+04-2.79616E+04 1.35082E+08 9.57084E-06 1.77180E+06 1.26224E-04
 -1       212 8.82128E+04 3.13812E+05 5.40020E+07 3.41018E-06 8.05585E+06 7.55176E-05
 -1       213-9.69004E+05 3.92293E+06 5.36907E+07-1.65937E+06 2.34719E+06 5.14478E+05
 -1       214-4.09022E+05 1.10867E+06 5.46098E+07-4.83069E-05 1.82571E+06 8.74570E-05
 -1       215-4.17541E+05 3.45171E+05 8.10166E+07-3.68495E+05 3.73564E+06 4.07194E+05
 -1       216-2.17657E+05 2.09579E+06 2.65805E+07-1.40087E+06 9.86283E+06 1.07650E+05
 -1       217-6.89013E+05 2.51580E+06 5.41502E+07 1.18353E+05 2.08645E+06 4.64624E+05
 -1       218-1.89271E+05-2.48331E+05 8.09403E+07-1.77544E-05 2.22401E+06 1.17308E-04
 -1       219 6.56968E+04 4.74312E+05 2.72656E+07-2.26605E-05 8.13638E+06 4.60600E-05
 -1       220 3.77884E+06-1.63785E+07 3.02074E+06 6.71066E+06 7.56982E+06 2.35369E+06
 -1       221 4.68297E+06-4.29660E+06-4.15292E+04 1.43424E-05 1.01242E+06 2.39362E-05
 -1       222 1.80769E+06-3.90015E+06 2.80105E+07 2.00840E+06 2.18610E+06 1.86322E+06
 -1       223-5.36649E+05-9.89611E+06-7.19244E+05 5.95235E+06 1.30136E+07 3.06082E+05
 -1       224 4.23090E+06-1.03375E+07 1.48960E+06 7.30817E+04 4.29112E+06 2.46073E+06
 -1       225 2.25229E+06-4.64413E+05 2.71788E+07-1.90972E-05 7.18299E+05 7.51513E-05
 -1       226 8.59451E+05-2.18715E+06-7.71614E+05 1.23670E-05 4.98560E+06-4.30248E-06
 -1       227 1.23907E+08 1.32250E+08 4.63876E+08-1.40530E+07 1.87935E+07 7.73133E+07
 -1       228-2.75927E+07-3.14286E+07 3.67000E+08 4.09192E+06 2.25014E+06-1.74408E+07
 -1       229 1.16190E+08 1.25012E+08 4.45390E+08-3.48920E+06 3.68741E+07 3.65063E+07
 -1       230-2.30979E+07-2.99093E+07 3.74241E+08 7.85469E+05-2.30201E+06-8.00118E+06
 -1       231 4.89042E+07 3.61194E+07 2.18442E+08-1.38134E+07-9.23114E+06 3.86846E+07
 -1       232 3.03976E+07 3.71094E+07 4.08435E+08-7.52592E+06 2.70016E+06 1.56334E+07
 -1       233-9.98338E+06-6.13903E+06 1.87115E+08 3.41850E+06 1.26466E+07-8.82490E+06
 -1       234-1.20567E+06 2.79421E+06 3.23334E+08-2.24789E+06-5.27839E+05-2.92675E+06
 -1       235-1.66553E+05 3.89201E+06 3.25782E+08-2.28042E+05-4.57178E+05-2.08694E+06
 -1       236-7.66332E+04-5.48004E+06 3.50743E+08 2.81629E+06 4.36824E+06 1.58358E+06
 -1       237-2.27898E+06-2.56004E+06 1.59915E+08-2.24226E+06 9.88054E+06-1.33685E+06
 -1       238-1.26401E+06-2.58654E+06 2.69386E+08 3.35879E+05 1.82058E+06-1.22199E+06
 -1       239-9.80011E+05-2.39842E+06 2.69818E+08-5.80922E+04 1.56707E+06-9.26935E+05
 -1       240 1.37181E+06 2.89662E+06 2.97634E+08-5.14265E+05 3.30788E+06-1.09330E+05
 -1       241-5.17382E+05-1.02537E+06 1.34837E+08 3.32805E+05 1.00345E+07-5.02754E+05
 -1       242 2.17420E+04 9.52777E+04 2.16065E+08-1.79563E+05 2.06588E+06-8.00792E+05
 -1       243 5.83115E+04 1.92124E+05 2.16153E+08-1.78874E+04 1.76690E+06-7.47122E+05
 -1       244-7.76754E+04-2.65508E+05 2.42931E+08 1.89594E+05 3.08460E+06-5.85141E+05
 -1       245-1.44708E+05-3.05829E+05 1.07872E+08-1.61744E+05 1.00800E+07-2.89695E+05
 -1       246-5.30603E+04 1.11729E+05 1.62000E+08 1.52414E+05 2.41162E+06-7.58743E+05
 -1       247-5.16869E+04-9.16861E+02 1.61984E+08-1.61142E+04 2.06316E+06-7.20520E+05
 -1       248 4.16871E+04 2.18868E+05 1.89005E+08-6.44284E+03 2.87563E+06-5.89910E+05
 -1       249 1.05364E+04 1.05794E+05 8.10080E+07 1.30873E+05 1.00998E+07-2.62562E+05
 -1       250 3.08426E+05-2.34056E+05 1.07861E+08-2.55304E+05 1.51005E+06-8.34020E+05
 -1       251 2.15282E+05-5.09915E+04 1.07817E+08 2.55866E+05 1.50885E+06-7.36435E+05
 -1       252 4.18576E+04-3.13543E+05 1.35011E+08-1.44376E+05 2.80103E+06-6.79886E+05
 -1       253 2.73412E+05 3.09856E+05 5.41731E+07-2.63259E+05 9.94337E+06-3.16459E+05
 -1       254-9.69004E+05 3.92293E+06 5.36907E+07 1.65937E+06 2.34719E+06-5.14478E+05
 -1       255-6.89013E+05 2.51580E+06 5.41502E+07-1.18353E+05 2.08645E+06-4.64624E+05
 -1       256-4.17541E+05 3.45171E+05 8.10166E+07 3.68495E+05 3.73564E+06-4.07194E+05
 -1       257-2.17657E+05 2.09579E+06 2.65805E+07 1.40087E+06 9.86283E+06-1.07650E+05
 -1       258 3.77884E+06-1.63785E+07 3.02074E+06-6.71066E+06 7.56982E+06-2.35369E+06
 -1       259 4.23090E+06-1.03375E+07 1.48960E+06-7.30817E+04 4.29112E+06-2.46073E+06
 -1       260 1.80769E+06-3.90015E+06 2.80105E+07-2.00840E+06 2.18610E+06-1.86322E+06
 -1       261-5.36649E+05-9.89611E+06-7.19244E+05-5.95235E+06 1.30136E+07-3.06082E+05
 -3
 9999
